language ESSENCE' 1.0
$ loaded file: carseqdata/csplib-instance-32
letting numcars=200
letting numclasses=27
letting numoptions=5
letting optMax=[1, 2, 1, 2, 1]
letting windowSize=[2, 3, 3, 5, 5]
letting numberPerClass=[1, 2, 1, 33, 1, 1, 1, 2, 9, 1, 6, 24, 1, 51, 1, 6, 7, 2, 8, 14, 4, 1, 4, 2, 2, 1, 14]
letting optionsRequired=[[1, 1, 1, 1, 0], [1, 0, 0, 0, 1], [1, 0, 1, 0, 1], [0, 0, 0, 1, 0], [1, 1, 1, 0, 1], [0, 1, 0, 1, 1], [1, 0, 1, 1, 1], [1, 1, 0, 1, 0], [0, 1, 0, 1, 0], [0, 0, 1, 0, 1], [1, 0, 0, 1, 0], [0, 0, 1, 0, 0], [1, 1, 1, 0, 0], [0, 1, 0, 0, 0], [0, 0, 1, 1, 0], [1, 0, 1, 0, 0], [0, 1, 1, 0, 0], [1, 1, 0, 0, 1], [0, 0, 0, 0, 1], [1, 0, 0, 0, 0], [1, 0, 0, 1, 1], [0, 1, 0, 0, 1], [0, 1, 1, 1, 0], [0, 0, 0, 1, 1], [0, 1, 1, 0, 0], [1, 0, 1, 0, 0], [1, 1, 0, 0, 0]]
